NAME : portcgen-23-29
COMMENT : portcgen N=23, seed=29
TYPE : TSP
DIMENSION : 23
EDGE_WEIGHT_TYPE : EUC_2D
NODE_COORD_SECTION
1 -268466 -182709
2 -17826 477163
3 448065 -35451
4 238901 -87484
5 -141088 -97922
6 -247078 88827
7 -311616 -392029
8 -42183 -44424
9 63046 -117053
10 -285450 -285127
11 -332476 144046
12 225335 -66962
13 122792 388430
14 139450 96444
15 193258 341974
16 -23077 177194
17 -56497 -158866
18 -119066 -10582
19 -132847 56111
20 75769 145447
21 93457 516175
22 -357722 152413
23 -8423 4522
